[VALIDATOR STDOUT]
Checking plan: /home/ubuntu/Safety-gen/runs/benchmark/optic/blocksworld_20260126_211507/blocksworld/optic_results/bw_ops3_n11_seed11001.plan
Plan executed successfully - checking goal
Goal not satisfied
Plan invalid


Failed plans:
 /home/ubuntu/Safety-gen/runs/benchmark/optic/blocksworld_20260126_211507/blocksworld/optic_results/bw_ops3_n11_seed11001.plan
